% demand
num_movements = 44;
loading_factor = [1100, 1750, 1100, 1150, 1850, 1900, 1050, 1350, 1350, 1500, 1700, 900, 1300, 1250, 1200, 1300, 1950, 1800, 1900, 1600, 850, 950, 1650, 1100, 1150, 1650, 1900, 1650, 2000, 1700, 1700, 1950, 1350, 1450, 850, 1450, 1050, 1350, 1450, 1200, 1150, 800, 1450, 1300];
pickup_time = [0, 0, 0, 0, 0, 0, 0, 1, 1, 1, 1, 1, 1, 1, 1, 2, 2, 2, 2, 2, 2, 3, 3, 3, 3, 5, 5, 5, 6, 6, 6, 6, 6, 6, 6, 7, 7, 7, 7, 7, 7, 8, 8, 8];
delivery_time = [1, 1, 1, 1, 1, 1, 1, 2, 2, 2, 2, 2, 2, 3, 2, 5, 5, 3, 3, 4, 3, 5, 6, 4, 5, 6, 6, 6, 7, 7, 7, 7, 8, 7, 7, 8, 9, 9, 9, 9, 8, 9, 9, 9];

% transporter definition
total_capacity = 11000;
num_decks = 4;
capacity = [3000, 3000, 1000, 4000];

% ways out of decks
num_ways_out = 2;
paths_out = array3d(decks, ways_out, decks, [
% ways out of deck d1
2, 4, 0, 0, 3, 4, 0, 0, 

% ways out of deck d2
4, 0, 0, 0, 0, 0, 0, 0,	

% ways out of deck d3
4, 0, 0, 0, 0, 0, 0, 0,	

% ways out of deck d4
0, 0, 0, 0,	0, 0, 0, 0,	

]);

